FINALPROJECTCODE.gms.log

--- Job FINALPROJECTCODE.gms Start 12/02/25 20:54:49 51.4.0 91cb996b WEX-WEI x86 64bit/MS Windows
--- Applying:
    C:\GAMS\51\gmsprmNT.txt
--- GAMS Parameters defined
    Input "D:\MEM\Operational Research\PROJECT\FINALPROJECTCODE.gms"
    PageSize 0
    ScrDir "D:\MEM\Operational Research\PROJECT\225a\"
    SysDir C:\GAMS\51\
    LogOption 3
    AppendLog 1
    ErrMsg 1
    ErrorLog 99
    IDE 1
    LstTitleLeftAligned 1
Licensee: Poonam Kunwar                                  G251128+0003Ac-GEN
          pkunwar@ncsu.edu                                        CLA114851
          225a\gamslice.dat
          node:23457803 mem:16 cores:8 ipport:53361 v:2                    
          Community license for demonstration and instructional purposes only
System information: 8 physical cores and 16 Gb physical memory detected
GAMS 51.4.0   Copyright (C) 1987-2025 GAMS Development. All rights reserved
--- Starting compilation
--- FINALPROJECTCODE.gms(251) 3 Mb
--- Starting execution: elapsed 0:00:00.016
--- FINALPROJECTCODE.gms(131) 4 Mb
--- Generating LP model Project
--- FINALPROJECTCODE.gms(209) 4 Mb
---   366 rows  313 columns  1,105 non-zeroes
--- Range statistics (absolute non-zero finite values)
--- RHS       [min, max] : [ 1.000E+02, 4.000E+03] - Zero values observed as well
--- Bound     [min, max] : [        NA,        NA] - Zero values observed as well
--- Matrix    [min, max] : [ 1.200E-01, 5.000E+03]
--- Executing CPLEX (Solvelink=2): elapsed 0:00:00.035

IBM ILOG CPLEX   51.4.0 91cb996b Nov 10, 2025          WEI x86 64bit/MS Window

*** This solver runs with a community license. No commercial use.
--- GMO setup time: 0.00s
--- Space for names approximately 0.02 Mb
--- Use option 'names no' to turn use of names off
--- GMO memory 0.58 Mb (peak 0.58 Mb)
--- Dictionary memory 0.00 Mb
--- Cplex 22.1.2.0 link memory 0.01 Mb (peak 0.04 Mb)
--- Starting Cplex

Version identifier: 22.1.2.0 | 2024-11-25 | 0edbb82fd
CPXPARAM_Advance                                 0
CPXPARAM_MIP_Display                             4
CPXPARAM_MIP_Pool_Capacity                       0
CPXPARAM_MIP_Tolerances_AbsMIPGap                0
Tried aggregator 1 time.
LP Presolve eliminated 256 rows and 77 columns.
Aggregator did 14 substitutions.
Reduced LP has 95 rows, 222 columns, and 452 nonzeros.
Presolve time = 0.00 sec. (0.38 ticks)
Initializing dual steep norms . . .

Iteration log . . .
Iteration:     1   Dual objective     =        294066.000000
Iteration:    62   Dual objective     =       4347234.800000
Iteration:   124   Dual objective     =       7135040.000000

--- LP status (1): optimal.
--- Cplex Time: 0.00sec (det. 1.05 ticks)


Optimal solution found
Objective:      7142012.750000

--- Reading solution for model Project
--- Executing after solve: elapsed 0:00:00.084
--- FINALPROJECTCODE.gms(211) 4 Mb
*** Status: Normal completion
--- Job FINALPROJECTCODE.gms Stop 12/02/25 20:54:49 elapsed 0:00:00.086
